p cnf 586 865 
-1  2 0 
-3  2 0 
-1 -3  4 0 
-5  6 0 
-7  6 0 
-5 -7  8 0 
-2  9 0 
-6  9 0 
-2 -6  10 0 
-4  11 0 
-8  11 0 
-4 -8  12 0 
-11  13 0 
-10  13 0 
-11 -10  14 0 
-15  16 0 
-17  16 0 
-15 -17  18 0 
-19  20 0 
-21  20 0 
-19 -21  22 0 
-16  23 0 
-20  23 0 
-16 -20  24 0 
-18  25 0 
-22  25 0 
-18 -22  26 0 
-25  27 0 
-24  27 0 
-25 -24  28 0 
-9  29 0 
-23  29 0 
-9 -23  30 0 
-14  31 0 
-28  31 0 
-14 -28  32 0 
-31  33 0 
-30  33 0 
-31 -30  34 0 
-13  35 0 
-27  35 0 
-13 -27  36 0 
-12  37 0 
-26  37 0 
-12 -26  38 0 
-37  39 0 
-36  39 0 
-37 -36  40 0 
-35  41 0 
-33  41 0 
-35 -33  42 0 
-39  43 0 
-34  43 0 
-39 -34  44 0 
-40  45 0 
-32  45 0 
-40 -32  46 0 
-47  48 0 
-49  48 0 
-47 -49  50 0 
-51  52 0 
-53  52 0 
-51 -53  54 0 
-48  55 0 
-52  55 0 
-48 -52  56 0 
-50  57 0 
-54  57 0 
-50 -54  58 0 
-57  59 0 
-56  59 0 
-57 -56  60 0 
-61  62 0 
-63  62 0 
-61 -63  64 0 
-65  66 0 
-67  66 0 
-65 -67  68 0 
-62  69 0 
-66  69 0 
-62 -66  70 0 
-64  71 0 
-68  71 0 
-64 -68  72 0 
-71  73 0 
-70  73 0 
-71 -70  74 0 
-55  75 0 
-69  75 0 
-55 -69  76 0 
-60  77 0 
-74  77 0 
-60 -74  78 0 
-77  79 0 
-76  79 0 
-77 -76  80 0 
-59  81 0 
-73  81 0 
-59 -73  82 0 
-58  83 0 
-72  83 0 
-58 -72  84 0 
-83  85 0 
-82  85 0 
-83 -82  86 0 
-81  87 0 
-79  87 0 
-81 -79  88 0 
-85  89 0 
-80  89 0 
-85 -80  90 0 
-86  91 0 
-78  91 0 
-86 -78  92 0 
-29  93 0 
-75  93 0 
-29 -75  94 0 
-44  95 0 
-90  95 0 
-44 -90  96 0 
-95  97 0 
-94  97 0 
-95 -94  98 0 
-42  99 0 
-88  99 0 
-42 -88  100 0 
-46  101 0 
-92  101 0 
-46 -92  102 0 
-101  103 0 
-100  103 0 
-101 -100  104 0 
-99  105 0 
-97  105 0 
-99 -97  106 0 
-103  107 0 
-98  107 0 
-103 -98  108 0 
-104  109 0 
-96  109 0 
-104 -96  110 0 
-41  111 0 
-87  111 0 
-41 -87  112 0 
-45  113 0 
-91  113 0 
-45 -91  114 0 
-113  115 0 
-112  115 0 
-113 -112  116 0 
-43  117 0 
-89  117 0 
-43 -89  118 0 
-38  119 0 
-84  119 0 
-38 -84  120 0 
-119  121 0 
-118  121 0 
-119 -118  122 0 
-117  123 0 
-115  123 0 
-117 -115  124 0 
-121  125 0 
-116  125 0 
-121 -116  126 0 
-122  127 0 
-114  127 0 
-122 -114  128 0 
-111  129 0 
-105  129 0 
-111 -105  130 0 
-123  131 0 
-106  131 0 
-123 -106  132 0 
-124  133 0 
-107  133 0 
-124 -107  134 0 
-125  135 0 
-108  135 0 
-125 -108  136 0 
-126  137 0 
-109  137 0 
-126 -109  138 0 
-127  139 0 
-110  139 0 
-127 -110  140 0 
-128  141 0 
-102  141 0 
-128 -102  142 0 
-143  144 0 
-145  144 0 
-143 -145  146 0 
-147  148 0 
-149  148 0 
-147 -149  150 0 
-144  151 0 
-148  151 0 
-144 -148  152 0 
-146  153 0 
-150  153 0 
-146 -150  154 0 
-153  155 0 
-152  155 0 
-153 -152  156 0 
-157  158 0 
-159  158 0 
-157 -159  160 0 
-161  162 0 
-163  162 0 
-161 -163  164 0 
-158  165 0 
-162  165 0 
-158 -162  166 0 
-160  167 0 
-164  167 0 
-160 -164  168 0 
-167  169 0 
-166  169 0 
-167 -166  170 0 
-151  171 0 
-165  171 0 
-151 -165  172 0 
-156  173 0 
-170  173 0 
-156 -170  174 0 
-173  175 0 
-172  175 0 
-173 -172  176 0 
-155  177 0 
-169  177 0 
-155 -169  178 0 
-154  179 0 
-168  179 0 
-154 -168  180 0 
-179  181 0 
-178  181 0 
-179 -178  182 0 
-177  183 0 
-175  183 0 
-177 -175  184 0 
-181  185 0 
-176  185 0 
-181 -176  186 0 
-182  187 0 
-174  187 0 
-182 -174  188 0 
-189  190 0 
-191  190 0 
-189 -191  192 0 
-193  194 0 
-195  194 0 
-193 -195  196 0 
-190  197 0 
-194  197 0 
-190 -194  198 0 
-192  199 0 
-196  199 0 
-192 -196  200 0 
-199  201 0 
-198  201 0 
-199 -198  202 0 
-203  204 0 
-205  204 0 
-203 -205  206 0 
-207  208 0 
-209  208 0 
-207 -209  210 0 
-204  211 0 
-208  211 0 
-204 -208  212 0 
-206  213 0 
-210  213 0 
-206 -210  214 0 
-213  215 0 
-212  215 0 
-213 -212  216 0 
-197  217 0 
-211  217 0 
-197 -211  218 0 
-202  219 0 
-216  219 0 
-202 -216  220 0 
-219  221 0 
-218  221 0 
-219 -218  222 0 
-201  223 0 
-215  223 0 
-201 -215  224 0 
-200  225 0 
-214  225 0 
-200 -214  226 0 
-225  227 0 
-224  227 0 
-225 -224  228 0 
-223  229 0 
-221  229 0 
-223 -221  230 0 
-227  231 0 
-222  231 0 
-227 -222  232 0 
-228  233 0 
-220  233 0 
-228 -220  234 0 
-171  235 0 
-217  235 0 
-171 -217  236 0 
-186  237 0 
-232  237 0 
-186 -232  238 0 
-237  239 0 
-236  239 0 
-237 -236  240 0 
-184  241 0 
-230  241 0 
-184 -230  242 0 
-188  243 0 
-234  243 0 
-188 -234  244 0 
-243  245 0 
-242  245 0 
-243 -242  246 0 
-241  247 0 
-239  247 0 
-241 -239  248 0 
-245  249 0 
-240  249 0 
-245 -240  250 0 
-246  251 0 
-238  251 0 
-246 -238  252 0 
-183  253 0 
-229  253 0 
-183 -229  254 0 
-187  255 0 
-233  255 0 
-187 -233  256 0 
-255  257 0 
-254  257 0 
-255 -254  258 0 
-185  259 0 
-231  259 0 
-185 -231  260 0 
-180  261 0 
-226  261 0 
-180 -226  262 0 
-261  263 0 
-260  263 0 
-261 -260  264 0 
-259  265 0 
-257  265 0 
-259 -257  266 0 
-263  267 0 
-258  267 0 
-263 -258  268 0 
-264  269 0 
-256  269 0 
-264 -256  270 0 
-253  271 0 
-247  271 0 
-253 -247  272 0 
-265  273 0 
-248  273 0 
-265 -248  274 0 
-266  275 0 
-249  275 0 
-266 -249  276 0 
-267  277 0 
-250  277 0 
-267 -250  278 0 
-268  279 0 
-251  279 0 
-268 -251  280 0 
-269  281 0 
-252  281 0 
-269 -252  282 0 
-270  283 0 
-244  283 0 
-270 -244  284 0 
-93 -235  285 0 
-136  286 0 
-278  286 0 
-136 -278 0 
-286 -285  287 0 
-132 -274  288 0 
-140  289 0 
-282  289 0 
-140 -282 0 
-289  290 0 
-288  290 0 
-289 -288 0 
-290 -287  291 0 
-130 -272  292 0 
-138  293 0 
-280  293 0 
-138 -280 0 
-293 -292  294 0 
-134 -276  295 0 
-142  296 0 
-284  296 0 
-142 -284 0 
-296  297 0 
-295  297 0 
-296 -295 0 
-297  298 0 
-294  298 0 
-297 -294 0 
-298 -291  299 0 
-129 -271  300 0 
-137  301 0 
-279  301 0 
-137 -279 0 
-301 -300  302 0 
-133 -275  303 0 
-141  304 0 
-283  304 0 
-141 -283 0 
-304  305 0 
-303  305 0 
-304 -303 0 
-305 -302  306 0 
-131 -273  307 0 
-139  308 0 
-281  308 0 
-139 -281 0 
-308 -307  309 0 
-135 -277  310 0 
-120  311 0 
-262  311 0 
-120 -262 0 
-311  312 0 
-310  312 0 
-311 -310 0 
-312  313 0 
-309  313 0 
-312 -309 0 
-313  314 0 
-306  314 0 
-313 -306 0 
-314 -299 0 
 1  3 -315 0 
 1 -316 0 
 3 -316 0 
 5  7 -317 0 
 5 -318 0 
 7 -318 0 
 315  317 -319 0 
 315 -320 0 
 317 -320 0 
 316  318 -321 0 
 316 -322 0 
 318 -322 0 
 321  320 -323 0 
 321 -324 0 
 320 -324 0 
 15  17 -325 0 
 15 -326 0 
 17 -326 0 
 19  21 -327 0 
 19 -328 0 
 21 -328 0 
 325  327 -329 0 
 325 -330 0 
 327 -330 0 
 326  328 -331 0 
 326 -332 0 
 328 -332 0 
 331  330 -333 0 
 331 -334 0 
 330 -334 0 
 319  329 -335 0 
 319 -336 0 
 329 -336 0 
 324  334 -337 0 
 324 -338 0 
 334 -338 0 
 337  336 -339 0 
 337 -340 0 
 336 -340 0 
 323  333 -341 0 
 323 -342 0 
 333 -342 0 
 322  332 -343 0 
 322 -344 0 
 332 -344 0 
 343  342 -345 0 
 343 -346 0 
 342 -346 0 
 341  339 -347 0 
 341 -348 0 
 339 -348 0 
 345  340 -349 0 
 345 -350 0 
 340 -350 0 
 346  338 -351 0 
 346 -352 0 
 338 -352 0 
 47  49 -353 0 
 47 -354 0 
 49 -354 0 
 51  53 -355 0 
 51 -356 0 
 53 -356 0 
 353  355 -357 0 
 353 -358 0 
 355 -358 0 
 354  356 -359 0 
 354 -360 0 
 356 -360 0 
 359  358 -361 0 
 359 -362 0 
 358 -362 0 
 61  63 -363 0 
 61 -364 0 
 63 -364 0 
 65  67 -365 0 
 65 -366 0 
 67 -366 0 
 363  365 -367 0 
 363 -368 0 
 365 -368 0 
 364  366 -369 0 
 364 -370 0 
 366 -370 0 
 369  368 -371 0 
 369 -372 0 
 368 -372 0 
 357  367 -373 0 
 357 -374 0 
 367 -374 0 
 362  372 -375 0 
 362 -376 0 
 372 -376 0 
 375  374 -377 0 
 375 -378 0 
 374 -378 0 
 361  371 -379 0 
 361 -380 0 
 371 -380 0 
 360  370 -381 0 
 360 -382 0 
 370 -382 0 
 381  380 -383 0 
 381 -384 0 
 380 -384 0 
 379  377 -385 0 
 379 -386 0 
 377 -386 0 
 383  378 -387 0 
 383 -388 0 
 378 -388 0 
 384  376 -389 0 
 384 -390 0 
 376 -390 0 
 335  373 0 
 335 -391 0 
 373 -391 0 
 350  388 -392 0 
 350 -393 0 
 388 -393 0 
 392  391 -394 0 
 392 -395 0 
 391 -395 0 
 348  386 -396 0 
 348 -397 0 
 386 -397 0 
 352  390 -398 0 
 352 -399 0 
 390 -399 0 
 398  397 -400 0 
 398 -401 0 
 397 -401 0 
 396  394 -402 0 
 396 -403 0 
 394 -403 0 
 400  395 -404 0 
 400 -405 0 
 395 -405 0 
 401  393 -406 0 
 401 -407 0 
 393 -407 0 
 347  385 -408 0 
 347 -409 0 
 385 -409 0 
 351  389 -410 0 
 351 -411 0 
 389 -411 0 
 410  409 -412 0 
 410 -413 0 
 409 -413 0 
 349  387 -414 0 
 349 -415 0 
 387 -415 0 
 344  382 -416 0 
 344 -417 0 
 382 -417 0 
 416  415 -418 0 
 416 -419 0 
 415 -419 0 
 414  412 -420 0 
 414 -421 0 
 412 -421 0 
 418  413 -422 0 
 418 -423 0 
 413 -423 0 
 419  411 -424 0 
 419 -425 0 
 411 -425 0 
 408  402 -426 0 
 408 -427 0 
 402 -427 0 
 420  403 -428 0 
 420 -429 0 
 403 -429 0 
 421  404 -430 0 
 421 -431 0 
 404 -431 0 
 422  405 -432 0 
 422 -433 0 
 405 -433 0 
 423  406 -434 0 
 423 -435 0 
 406 -435 0 
 424  407 -436 0 
 424 -437 0 
 407 -437 0 
 425  399 -438 0 
 425 -439 0 
 399 -439 0 
 143  145 -440 0 
 143 -441 0 
 145 -441 0 
 147  149 -442 0 
 147 -443 0 
 149 -443 0 
 440  442 -444 0 
 440 -445 0 
 442 -445 0 
 441  443 -446 0 
 441 -447 0 
 443 -447 0 
 446  445 -448 0 
 446 -449 0 
 445 -449 0 
 157  159 -450 0 
 157 -451 0 
 159 -451 0 
 161  163 -452 0 
 161 -453 0 
 163 -453 0 
 450  452 -454 0 
 450 -455 0 
 452 -455 0 
 451  453 -456 0 
 451 -457 0 
 453 -457 0 
 456  455 -458 0 
 456 -459 0 
 455 -459 0 
 444  454 -460 0 
 444 -461 0 
 454 -461 0 
 449  459 -462 0 
 449 -463 0 
 459 -463 0 
 462  461 -464 0 
 462 -465 0 
 461 -465 0 
 448  458 -466 0 
 448 -467 0 
 458 -467 0 
 447  457 -468 0 
 447 -469 0 
 457 -469 0 
 468  467 -470 0 
 468 -471 0 
 467 -471 0 
 466  464 -472 0 
 466 -473 0 
 464 -473 0 
 470  465 -474 0 
 470 -475 0 
 465 -475 0 
 471  463 -476 0 
 471 -477 0 
 463 -477 0 
 189  191 -478 0 
 189 -479 0 
 191 -479 0 
 193  195 -480 0 
 193 -481 0 
 195 -481 0 
 478  480 -482 0 
 478 -483 0 
 480 -483 0 
 479  481 -484 0 
 479 -485 0 
 481 -485 0 
 484  483 -486 0 
 484 -487 0 
 483 -487 0 
 203  205 -488 0 
 203 -489 0 
 205 -489 0 
 207  209 -490 0 
 207 -491 0 
 209 -491 0 
 488  490 -492 0 
 488 -493 0 
 490 -493 0 
 489  491 -494 0 
 489 -495 0 
 491 -495 0 
 494  493 -496 0 
 494 -497 0 
 493 -497 0 
 482  492 -498 0 
 482 -499 0 
 492 -499 0 
 487  497 -500 0 
 487 -501 0 
 497 -501 0 
 500  499 -502 0 
 500 -503 0 
 499 -503 0 
 486  496 -504 0 
 486 -505 0 
 496 -505 0 
 485  495 -506 0 
 485 -507 0 
 495 -507 0 
 506  505 -508 0 
 506 -509 0 
 505 -509 0 
 504  502 -510 0 
 504 -511 0 
 502 -511 0 
 508  503 -512 0 
 508 -513 0 
 503 -513 0 
 509  501 -514 0 
 509 -515 0 
 501 -515 0 
 460  498 0 
 460 -516 0 
 498 -516 0 
 475  513 -517 0 
 475 -518 0 
 513 -518 0 
 517  516 -519 0 
 517 -520 0 
 516 -520 0 
 473  511 -521 0 
 473 -522 0 
 511 -522 0 
 477  515 -523 0 
 477 -524 0 
 515 -524 0 
 523  522 -525 0 
 523 -526 0 
 522 -526 0 
 521  519 -527 0 
 521 -528 0 
 519 -528 0 
 525  520 -529 0 
 525 -530 0 
 520 -530 0 
 526  518 -531 0 
 526 -532 0 
 518 -532 0 
 472  510 -533 0 
 472 -534 0 
 510 -534 0 
 476  514 -535 0 
 476 -536 0 
 514 -536 0 
 535  534 -537 0 
 535 -538 0 
 534 -538 0 
 474  512 -539 0 
 474 -540 0 
 512 -540 0 
 469  507 -541 0 
 469 -542 0 
 507 -542 0 
 541  540 -543 0 
 541 -544 0 
 540 -544 0 
 539  537 -545 0 
 539 -546 0 
 537 -546 0 
 543  538 -547 0 
 543 -548 0 
 538 -548 0 
 544  536 -549 0 
 544 -550 0 
 536 -550 0 
 533  527 -551 0 
 533 -552 0 
 527 -552 0 
 545  528 -553 0 
 545 -554 0 
 528 -554 0 
 546  529 -555 0 
 546 -556 0 
 529 -556 0 
 547  530 -557 0 
 547 -558 0 
 530 -558 0 
 548  531 -559 0 
 548 -560 0 
 531 -560 0 
 549  532 -561 0 
 549 -562 0 
 532 -562 0 
 550  524 -563 0 
 550 -564 0 
 524 -564 0 
 433  558 0 
 429  554 0 
 429 -565 0 
 554 -565 0 
 437  562 -566 0 
 566  565 0 
 427  552 0 
 427 -567 0 
 552 -567 0 
 435  560 -568 0 
 568  567 0 
 568 -569 0 
 567 -569 0 
 431  556 0 
 431 -570 0 
 556 -570 0 
 439  564 -571 0 
 571  570 -572 0 
 572  569 0 
 426  551 0 
 426 -573 0 
 551 -573 0 
 434  559 -574 0 
 574  573 0 
 574 -575 0 
 573 -575 0 
 430  555 0 
 430 -576 0 
 555 -576 0 
 438  563 -577 0 
 577  576 -578 0 
 578  575 0 
 578 -579 0 
 575 -579 0 
 428  553 0 
 428 -580 0 
 553 -580 0 
 436  561 -581 0 
 581  580 0 
 581 -582 0 
 580 -582 0 
 432  557 0 
 432 -583 0 
 557 -583 0 
 417  542 -584 0 
 584  583 -585 0 
 585  582 -586 0 
 586  579 0 
